NAME          
ROWS
 N  OBJ
 L  c1
 L  c2
 L  c3
 L  c4
 L  c5
COLUMNS
    MARKER    'MARKER'                 'INTORG'
    x[1]      c1        87
    x[1]      c2        927
    x[1]      c3        889
    x[1]      c4        665
    x[1]      c5        828
    x[1]      OBJ       -672
    x[2]      c1        116
    x[2]      c2        21
    x[2]      c3        735
    x[2]      c4        652
    x[2]      c5        313
    x[2]      OBJ       -455
    x[3]      c1        57
    x[3]      c2        515
    x[3]      c3        263
    x[3]      c4        209
    x[3]      c5        662
    x[3]      OBJ       -986
    x[4]      c1        103
    x[4]      c2        163
    x[4]      c3        397
    x[4]      c4        728
    x[4]      c5        142
    x[4]      OBJ       -889
    x[5]      c1        627
    x[5]      c2        518
    x[5]      c3        244
    x[5]      c4        206
    x[5]      c5        134
    x[5]      OBJ       -699
    x[6]      c1        490
    x[6]      c2        243
    x[6]      c3        332
    x[6]      c4        922
    x[6]      c5        794
    x[6]      OBJ       -320
    x[7]      c1        975
    x[7]      c2        881
    x[7]      c3        723
    x[7]      c4        559
    x[7]      c5        989
    x[7]      OBJ       -543
    x[8]      c1        72
    x[8]      c2        410
    x[8]      c3        495
    x[8]      c4        752
    x[8]      c5        773
    x[8]      OBJ       -473
    x[9]      c1        185
    x[9]      c2        501
    x[9]      c3        661
    x[9]      c4        839
    x[9]      c5        526
    x[9]      OBJ       -382
    x[10]     c1        970
    x[10]     c2        801
    x[10]     c3        694
    x[10]     c4        850
    x[10]     c5        755
    x[10]     OBJ       -378
    x[11]     c1        392
    x[11]     c2        319
    x[11]     c3        288
    x[11]     c4        603
    x[11]     c5        681
    x[11]     OBJ       -518
    x[12]     c1        89
    x[12]     c2        950
    x[12]     c3        252
    x[12]     c4        801
    x[12]     c5        258
    x[12]     OBJ       -135
    x[13]     c1        89
    x[13]     c2        677
    x[13]     c3        84
    x[13]     c4        544
    x[13]     c5        468
    x[13]     OBJ       -161
    x[14]     c1        452
    x[14]     c2        719
    x[14]     c3        824
    x[14]     c4        633
    x[14]     c5        900
    x[14]     OBJ       -708
    x[15]     c1        100
    x[15]     c2        660
    x[15]     c3        187
    x[15]     c4        826
    x[15]     c5        875
    x[15]     OBJ       -287
    x[16]     c1        745
    x[16]     c2        499
    x[16]     c3        55
    x[16]     c4        69
    x[16]     c5        507
    x[16]     OBJ       -386
    x[17]     c1        514
    x[17]     c2        786
    x[17]     c3        95
    x[17]     c4        655
    x[17]     c5        855
    x[17]     OBJ       -508
    x[18]     c1        554
    x[18]     c2        318
    x[18]     c3        419
    x[18]     c4        348
    x[18]     c5        873
    x[18]     OBJ       -290
    x[19]     c1        683
    x[19]     c2        318
    x[19]     c3        385
    x[19]     c4        211
    x[19]     c5        359
    x[19]     OBJ       -39
    x[20]     c1        181
    x[20]     c2        20
    x[20]     c3        977
    x[20]     c4        175
    x[20]     c5        182
    x[20]     OBJ       -771
    x[21]     c1        147
    x[21]     c2        60
    x[21]     c3        6
    x[21]     c4        532
    x[21]     c5        601
    x[21]     OBJ       -164
    x[22]     c1        114
    x[22]     c2        740
    x[22]     c3        904
    x[22]     c4        814
    x[22]     c5        241
    x[22]     OBJ       -922
    x[23]     c1        805
    x[23]     c2        542
    x[23]     c3        426
    x[23]     c4        867
    x[23]     c5        487
    x[23]     OBJ       -150
    x[24]     c1        47
    x[24]     c2        302
    x[24]     c3        750
    x[24]     c4        121
    x[24]     c5        901
    x[24]     OBJ       -183
    x[25]     c1        514
    x[25]     c2        97
    x[25]     c3        289
    x[25]     c4        879
    x[25]     c5        575
    x[25]     OBJ       -76
    x[26]     c1        7
    x[26]     c2        604
    x[26]     c3        203
    x[26]     c4        378
    x[26]     c5        222
    x[26]     OBJ       -261
    x[27]     c1        642
    x[27]     c2        656
    x[27]     c3        135
    x[27]     c4        909
    x[27]     c5        552
    x[27]     OBJ       -261
    x[28]     c1        852
    x[28]     c2        241
    x[28]     c3        811
    x[28]     c4        794
    x[28]     c5        726
    x[28]     OBJ       -141
    x[29]     c1        953
    x[29]     c2        224
    x[29]     c3        427
    x[29]     c4        927
    x[29]     c5        626
    x[29]     OBJ       -183
    x[30]     c1        737
    x[30]     c2        371
    x[30]     c3        563
    x[30]     c4        487
    x[30]     c5        189
    x[30]     OBJ       -865
    x[31]     c1        851
    x[31]     c2        48
    x[31]     c3        350
    x[31]     c4        525
    x[31]     c5        802
    x[31]     OBJ       -357
    x[32]     c1        611
    x[32]     c2        51
    x[32]     c3        676
    x[32]     c4        690
    x[32]     c5        726
    x[32]     OBJ       -160
    x[33]     c1        343
    x[33]     c2        2
    x[33]     c3        193
    x[33]     c4        453
    x[33]     c5        181
    x[33]     OBJ       -204
    x[34]     c1        165
    x[34]     c2        640
    x[34]     c3        607
    x[34]     c4        423
    x[34]     c5        63
    x[34]     OBJ       -697
    x[35]     c1        808
    x[35]     c2        445
    x[35]     c3        247
    x[35]     c4        633
    x[35]     c5        655
    x[35]     OBJ       -606
    x[36]     c1        387
    x[36]     c2        684
    x[36]     c3        876
    x[36]     c4        150
    x[36]     c5        432
    x[36]     OBJ       -702
    x[37]     c1        579
    x[37]     c2        187
    x[37]     c3        248
    x[37]     c4        21
    x[37]     c5        855
    x[37]     OBJ       -254
    x[38]     c1        163
    x[38]     c2        699
    x[38]     c3        102
    x[38]     c4        331
    x[38]     c5        377
    x[38]     OBJ       -694
    x[39]     c1        698
    x[39]     c2        297
    x[39]     c3        214
    x[39]     c4        437
    x[39]     c5        31
    x[39]     OBJ       -802
    x[40]     c1        762
    x[40]     c2        152
    x[40]     c3        781
    x[40]     c4        249
    x[40]     c5        651
    x[40]     OBJ       -672
RHS
    rhs       c1        8833
    rhs       c2        8644
    rhs       c3        8904
    rhs       c4        10934
    rhs       c5        10884
RANGES
BOUNDS
 BV bounds    x[1]
 BV bounds    x[2]
 BV bounds    x[3]
 BV bounds    x[4]
 BV bounds    x[5]
 BV bounds    x[6]
 BV bounds    x[7]
 BV bounds    x[8]
 BV bounds    x[9]
 BV bounds    x[10]
 BV bounds    x[11]
 BV bounds    x[12]
 BV bounds    x[13]
 BV bounds    x[14]
 BV bounds    x[15]
 BV bounds    x[16]
 BV bounds    x[17]
 BV bounds    x[18]
 BV bounds    x[19]
 BV bounds    x[20]
 BV bounds    x[21]
 BV bounds    x[22]
 BV bounds    x[23]
 BV bounds    x[24]
 BV bounds    x[25]
 BV bounds    x[26]
 BV bounds    x[27]
 BV bounds    x[28]
 BV bounds    x[29]
 BV bounds    x[30]
 BV bounds    x[31]
 BV bounds    x[32]
 BV bounds    x[33]
 BV bounds    x[34]
 BV bounds    x[35]
 BV bounds    x[36]
 BV bounds    x[37]
 BV bounds    x[38]
 BV bounds    x[39]
 BV bounds    x[40]
ENDATA
